c .nnodes 80
c .nvars 130
c .nsuppvars 86
c .ids  0 1 2 3 4 5 6 7 8 9 10 11 12 13 14 15 16 17 18 19 20 21 22 23 24 25 26 27 28 29 30 31 32 33 34 35 36 37 38 39 40 41 42 43 44 45 46 47 48 49 50 51 52 53 54 55 56 57 58 59 60 61 62 63 64 65 66 67 68 69 70 71 72 73 74 75 76 77 78 79 80 81 82 83 84 85 
c .cnfids  336 378 305 329 295 304 306 296 297 330 333 299 303 348 326 328 298 307 301 327 335 300 302 380 334 379 344 309 373 374 308 317 318 319 349 316 311 313 322 361 332 312 320 321 367 331 315 325 314 366 365 351 324 343 323 347 346 354 310 350 341 364 362 342 363 345 360 357 355 356 339 340 375 377 376 353 368 372 371 369 370 352 359 358 338 337 
c .nroots 1
c .rootids 2
p cnf 425 1344
3 379 4 -257 -264 0
3 -379 -4 -257 -264 0
-3 264 0
-3 -379 4 0
-3 257 0
-3 379 -4 0
4 -380 -5 0
4 380 -250 -254 0
-4 380 250 0
-4 -380 5 0
-4 380 254 0
5 6 -87 -129 -173 0
-5 -6 0
-5 173 0
-5 129 0
-5 87 0
6 -7 79 0
6 -79 86 0
6 79 -80 0
-6 -79 -86 0
-6 7 79 80 0
7 17 61 -62 0
7 8 17 61 0
-7 -61 0
-7 -17 0
-7 -8 62 0
8 -9 11 -13 0
-8 9 0
-8 -11 0
-8 13 0
9 369 -371 0
9 -369 371 10 0
9 -368 369 -10 0
-9 -369 -10 0
-9 369 371 10 0
-9 -369 -371 0
-9 368 371 -10 0
10 370 -372 0
-10 -370 0
-10 372 0
11 -370 371 -372 0
11 370 372 12 0
11 370 -371 -372 0
11 371 -372 -12 0
-11 -370 -371 0
-11 370 371 -372 12 0
-11 -370 372 0
-11 372 -12 0
12 368 369 0
-12 -368 0
-12 -369 0
13 14 -15 0
-13 -14 0
-13 15 0
14 370 -371 0
14 369 370 0
14 370 -372 0
14 -369 -370 371 0
-14 369 -370 0
-14 -370 -371 0
-14 -369 370 371 372 0
15 368 -369 16 0
15 368 369 -370 0
-15 -368 0
-15 -369 -16 0
-15 369 370 0
16 -370 -371 0
-16 370 0
-16 371 0
17 26 8 58 0
17 18 26 8 0
-17 -8 0
-17 -26 0
-17 -18 -58 0
18 -19 -20 0
-18 19 0
-18 20 0
19 9 11 0
-19 -9 0
-19 -11 0
20 21 -22 0
-20 -21 0
-20 22 0
21 368 -14 0
21 -368 14 0
-21 -368 -14 0
-21 368 14 0
22 23 24 0
-22 -23 0
-22 -24 0
23 368 16 0
23 368 369 0
-23 -368 0
-23 -369 -16 0
24 -368 -25 0
-24 368 0
-24 25 0
25 -369 -370 0
25 -369 -372 0
25 -369 -371 0
-25 369 0
-25 370 371 372 0
26 29 18 -52 0
26 27 29 18 0
-26 -18 0
-26 -29 0
-26 -27 52 0
27 368 369 370 -28 0
-27 28 0
-27 -370 0
-27 -368 0
-27 -369 0
28 9 -11 0
-28 -9 0
-28 11 0
29 -30 -41 0
29 -37 -41 0
29 -39 -41 0
-29 41 0
-29 30 37 39 0
30 310 -32 36 0
30 -31 32 36 0
-30 -36 0
-30 -310 -32 0
-30 31 32 0
31 -310 -352 0
31 310 352 0
-31 310 -352 0
-31 -310 352 0
32 -360 -33 0
-32 360 0
-32 33 0
33 -34 -35 0
-33 34 0
-33 35 0
34 -9 -11 0
-34 9 0
-34 11 0
35 -14 -15 0
-35 14 0
-35 15 0
36 -21 -28 -22 0
-36 21 0
-36 28 0
-36 22 0
37 -19 -38 0
-37 19 0
-37 38 0
38 16 -24 0
-38 -16 0
-38 24 0
39 310 -36 -40 0
39 -31 -36 40 0
-39 36 0
-39 31 40 0
-39 -310 -40 0
40 360 -361 0
-40 -360 0
-40 361 0
41 27 -50 0
41 27 -42 0
41 37 27 0
-41 -27 0
-41 -37 42 50 0
42 310 -352 -43 45 0
-42 -310 0
-42 -45 0
-42 43 0
-42 352 0
43 -342 44 0
-43 342 0
-43 -44 0
44 -337 -358 0
44 337 338 358 359 0
-44 337 -338 0
-44 -337 358 0
-44 358 -359 0
-44 337 -358 0
45 46 -48 0
-45 -46 0
-45 48 0
46 337 -338 -47 0
-46 47 0
-46 338 0
-46 -337 0
47 358 -359 0
-47 -358 0
-47 359 0
48 -343 -49 0
-48 343 0
-48 49 0
49 -352 -43 0
-49 352 0
-49 43 0
50 -343 -31 0
50 -31 51 0
-50 31 0
-50 343 -51 0
51 46 -49 0
-51 -46 0
-51 49 0
52 -310 -55 0
52 31 53 0
52 53 -55 0
52 -310 31 0
-52 -31 55 0
-52 310 -53 0
53 -375 376 -377 54 0
-53 377 0
-53 -54 0
-53 375 0
-53 -376 0
54 -346 358 0
54 346 -347 359 0
54 346 -358 0
54 347 358 -359 0
-54 -346 -358 0
-54 346 -347 358 -359 0
-54 346 347 358 359 0
55 -375 376 -377 56 0
-55 377 0
-55 -56 0
-55 375 0
-55 -376 0
56 346 -347 0
56 -346 358 0
56 346 57 0
-56 -346 -358 0
-56 346 347 -57 0
57 358 359 0
-57 -358 0
-57 -359 0
58 -310 31 0
58 -59 60 0
58 31 60 0
58 -310 -59 0
-58 -31 59 0
-58 310 -60 0
59 375 376 -377 56 0
-59 -375 0
-59 -56 0
-59 377 0
-59 -376 0
60 375 376 -377 54 0
-60 -375 0
-60 -54 0
-60 377 0
-60 -376 0
61 -35 -28 0
-61 35 0
-61 28 0
62 -63 66 0
62 31 66 0
-62 -66 0
-62 -31 63 0
63 375 -376 377 -64 0
-63 376 0
-63 -377 0
-63 -375 0
-63 64 0
64 46 44 -65 0
-64 65 0
-64 -44 0
-64 -46 0
65 -339 -358 0
65 339 340 358 359 0
-65 339 -340 0
-65 -339 358 0
-65 358 -359 0
-65 339 -358 0
66 -67 -77 0
66 353 -67 70 0
-66 67 0
-66 -353 77 0
-66 -70 77 0
67 375 -376 377 -68 0
-67 376 0
-67 -377 0
-67 -375 0
-67 68 0
68 44 69 0
-68 -44 0
-68 -69 0
69 -339 358 0
69 339 -340 359 0
69 339 -358 0
69 340 358 -359 0
-69 -339 -358 0
-69 339 -340 358 -359 0
-69 339 340 358 359 0
70 310 31 0
70 -71 74 0
70 31 74 0
70 310 -71 0
-70 -310 -74 0
-70 -31 71 0
71 -341 -72 0
71 -72 -73 0
-71 72 0
-71 341 73 0
72 353 -355 0
-72 -353 0
-72 355 0
73 -337 356 0
73 337 -338 357 0
73 337 -356 0
73 338 356 -357 0
-73 -337 -356 0
-73 337 -338 356 -357 0
-73 337 338 356 357 0
74 -355 75 0
-74 355 0
-74 -75 0
75 341 -76 0
-75 -341 0
-75 76 0
76 -337 -356 0
76 337 338 356 357 0
-76 337 -338 0
-76 -337 356 0
-76 356 -357 0
-76 337 -356 0
77 -353 354 78 0
77 -353 -354 -31 0
-77 353 0
-77 -354 31 0
-77 354 -78 0
78 310 31 0
78 -76 -73 0
78 310 -73 0
78 31 -76 0
-78 -310 76 0
-78 -31 73 0
79 -34 -20 0
-79 34 0
-79 20 0
80 31 -61 81 0
80 -61 81 -85 0
-80 61 0
-80 -81 0
-80 -31 85 0
81 -31 82 -83 0
81 78 -82 -83 0
-81 83 0
-81 -78 -82 0
-81 31 82 0
82 -353 354 0
-82 353 0
-82 -354 0
83 -68 -84 0
-83 68 0
-83 84 0
84 345 -375 376 377 0
-84 375 0
-84 -377 0
-84 -345 0
-84 -376 0
85 -64 -84 0
-85 64 0
-85 84 0
86 310 -344 0
86 344 -31 0
-86 -310 -344 0
-86 344 31 0
87 -93 -99 0
87 -8 88 -99 0
-87 99 0
-87 -88 93 0
-87 8 93 0
88 311 -92 0
88 89 91 0
88 89 -92 0
88 311 91 0
-88 -311 -89 0
-88 -91 92 0
89 -67 -90 0
-89 67 0
-89 90 0
90 352 353 0
-90 -352 0
-90 -353 0
91 -311 -353 0
91 311 353 0
-91 311 -353 0
-91 -311 353 0
92 -63 -90 0
-92 63 0
-92 90 0
93 -18 8 98 0
93 18 8 -94 0
-93 -8 0
-93 -18 -98 0
-93 18 94 0
94 95 97 0
94 96 97 0
-94 -97 0
-94 -95 -96 0
95 -28 -13 0
-95 28 0
-95 13 0
96 -311 -349 0
96 349 91 0
-96 311 -349 0
-96 349 -91 0
97 -311 -32 95 0
97 32 91 95 0
-97 -95 0
-97 311 -32 0
-97 32 -91 0
98 -59 60 0
98 -311 91 0
98 -311 -59 0
98 60 91 0
-98 59 -91 0
-98 311 -60 0
99 8 100 120 0
99 -8 100 118 0
-99 -100 0
-99 8 -120 0
-99 -8 -118 0
100 -61 -101 0
100 61 -113 0
100 61 -106 0
-100 -61 101 0
-100 61 106 113 0
101 -85 104 0
101 102 103 0
101 102 104 0
-101 85 -102 0
-101 -103 -104 0
-101 -102 -104 0
102 -325 -367 0
102 325 367 0
-102 325 -367 0
-102 -325 367 0
103 352 -353 354 0
-103 -352 0
-103 353 0
-103 -354 0
104 -352 -83 0
104 82 -83 0
104 -83 105 0
-104 83 0
-104 352 -82 -105 0
105 -76 -73 0
105 -325 102 0
105 -325 -73 0
105 -76 102 0
-105 73 -102 0
-105 325 76 0
106 -8 -63 107 0
106 -8 102 107 0
-106 8 0
-106 -107 0
-106 63 -102 0
107 -67 -108 0
107 -67 -111 0
107 -67 -110 0
-107 67 0
-107 108 110 111 0
108 -353 354 -109 0
108 -353 -354 -102 0
-108 353 0
-108 -354 102 0
-108 354 109 0
109 352 105 0
-109 -352 0
-109 -105 0
110 -352 -102 0
-110 352 0
-110 102 0
111 353 -112 0
111 353 71 -102 0
-111 -353 0
-111 -71 112 0
-111 102 112 0
112 -325 352 -74 0
-112 325 0
-112 -352 0
-112 74 0
113 8 102 115 0
113 8 -114 115 0
-113 -8 0
-113 -115 0
-113 -102 114 0
114 -37 48 0
-114 37 0
-114 -48 0
115 -116 -117 0
115 325 -49 -116 0
-115 116 0
-115 -325 117 0
-115 49 117 0
116 -37 45 0
-116 37 0
-116 -45 0
117 51 -102 0
-117 -51 0
-117 102 0
118 -312 119 0
118 89 -92 0
118 89 119 0
118 -312 -92 0
-118 312 -89 0
-118 92 -119 0
119 -312 -354 0
119 312 354 0
-119 312 -354 0
-119 -312 354 0
120 -18 -121 0
120 18 -127 0
120 18 -122 0
-120 -18 121 0
-120 18 122 127 0
121 312 -59 0
121 60 119 0
121 -59 60 0
121 312 119 0
-121 59 -119 0
-121 -312 -60 0
122 27 -114 123 0
122 27 119 123 0
-122 -27 0
-122 -123 0
-122 114 -119 0
123 -116 -124 0
123 -116 -125 0
-123 116 0
-123 124 125 0
124 51 -119 0
-124 -51 0
-124 119 0
125 312 -49 126 0
125 -312 -49 -126 0
-125 49 0
-125 -312 126 0
-125 312 -126 0
126 -353 -354 0
-126 353 0
-126 354 0
127 312 -27 128 0
127 -27 53 128 0
-127 27 0
-127 -128 0
-127 -312 -53 0
128 55 -119 0
-128 -55 0
-128 119 0
129 -61 -145 0
129 -130 -145 0
129 -139 -145 0
-129 145 0
-129 61 130 139 0
130 8 131 138 0
130 8 131 -137 0
-130 -8 0
-130 -131 0
-130 137 -138 0
131 -33 37 135 0
131 33 37 -132 0
-131 -37 0
-131 -33 -135 0
-131 33 132 0
132 133 134 0
132 337 133 0
132 -323 -337 -134 0
-132 337 -133 0
-132 -133 134 0
-132 323 -337 -134 0
133 -323 -365 0
133 323 365 0
-133 323 -365 0
-133 -323 365 0
134 -345 -363 -34 -38 0
-134 38 0
-134 345 0
-134 34 0
-134 363 0
135 -360 136 0
135 -133 136 0
-135 -136 0
-135 360 133 0
136 323 -350 -360 0
136 323 -360 -362 0
136 -323 350 -360 362 0
-136 -323 -350 0
-136 -323 -362 0
-136 360 0
-136 323 350 362 0
137 49 -133 0
137 337 -133 0
-137 133 0
-137 -337 -49 0
138 -323 -37 0
138 337 -37 0
138 -37 49 0
-138 37 0
-138 323 -337 -49 0
139 -8 -140 0
139 -8 92 -133 0
-139 8 0
-139 -92 140 0
-139 133 140 0
140 323 -144 0
140 -141 -142 -144 0
-140 144 0
-140 -323 141 0
-140 -323 142 0
141 -72 75 0
-141 72 0
-141 -75 0
142 337 358 -143 0
142 337 -356 358 0
-142 -337 0
-142 -358 0
-142 356 143 0
143 -362 -363 0
-143 362 0
-143 363 0
144 -323 -89 0
144 71 -89 0
144 -89 142 0
-144 89 0
-144 323 -71 -142 0
145 146 -165 0
145 -61 146 160 0
-145 -146 0
-145 -160 165 0
-145 61 165 0
146 -61 -147 0
146 61 -158 0
146 61 -153 0
-146 -61 147 0
-146 61 153 158 0
147 -149 150 0
147 148 150 0
-147 -150 0
-147 -148 149 0
148 -320 -362 0
148 320 362 0
-148 320 -362 0
-148 -320 362 0
149 -85 -90 0
-149 85 0
-149 90 0
150 -320 -151 -152 0
150 -148 -151 152 0
-150 151 0
-150 320 -152 0
-150 148 152 0
151 -83 -90 0
-151 83 0
-151 90 0
152 -337 353 -355 0
-152 337 0
-152 -353 0
-152 355 0
153 8 154 156 0
153 33 8 154 0
-153 -154 0
-153 -8 0
-153 -33 -156 0
154 33 155 -148 0
154 320 33 -155 0
-154 -33 0
-154 155 148 0
-154 -320 -155 0
155 -337 -134 0
-155 337 0
-155 134 0
156 -148 157 0
156 -320 -157 0
-156 148 157 0
-156 320 -157 0
157 -350 -360 0
-157 350 0
-157 360 0
158 -320 -8 159 0
158 -8 89 159 0
-158 8 0
-158 -159 0
-158 320 -89 0
159 92 -148 0
-159 -92 0
-159 148 0
160 -149 162 0
160 161 162 0
-160 -162 0
-160 149 -161 0
161 -322 -364 0
161 322 364 0
-161 322 -364 0
-161 -322 364 0
162 -322 -151 -163 0
162 -151 -161 163 0
-162 151 0
-162 322 -163 0
-162 161 163 0
163 -164 -72 0
-163 164 0
-163 72 0
164 337 338 0
-164 -337 0
-164 -338 0
165 -8 -171 0
165 -166 -171 0
165 -168 -171 0
-165 171 0
-165 8 166 168 0
166 322 33 -167 0
166 33 -161 167 0
-166 -33 0
-166 -322 -167 0
-166 161 167 0
167 -164 -134 0
-167 164 0
-167 134 0
168 -322 -33 -169 0
168 -33 -161 169 0
-168 33 0
-168 322 -169 0
-168 161 169 0
169 -360 -170 0
-169 360 0
-169 170 0
170 350 351 0
-170 -350 0
-170 -351 0
171 61 172 0
171 322 61 -89 0
-171 -61 0
-171 -322 -172 0
-171 89 -172 0
172 -8 -92 0
172 -8 161 0
-172 8 0
-172 92 -161 0
173 -174 -215 226 235 0
-173 215 0
-173 -235 0
-173 174 0
-173 -226 0
174 61 -189 0
174 -175 -183 -189 0
-174 189 0
-174 -61 175 0
-174 -61 183 0
175 176 -181 0
175 149 176 -180 0
-175 -176 0
-175 -149 181 0
-175 180 181 0
176 -149 178 0
176 177 178 0
-176 -178 0
-176 149 -177 0
177 -314 -356 0
177 314 -315 356 -357 0
177 314 315 356 357 0
-177 -314 356 0
-177 314 -315 357 0
-177 314 -356 0
-177 315 356 -357 0
178 72 -151 179 0
178 -72 -151 -177 0
-178 151 0
-178 72 -179 0
-178 -72 177 0
179 -314 337 0
179 314 -315 338 0
179 314 -337 0
179 315 337 -338 0
-179 -314 -337 0
-179 314 -315 337 -338 0
-179 314 315 337 338 0
180 -324 -366 0
180 324 366 0
-180 324 -366 0
-180 -324 366 0
181 -72 -151 -182 0
181 72 -151 -180 0
-181 151 0
-181 -72 182 0
-181 72 180 0
182 -324 -364 0
182 -324 -164 0
182 324 364 164 0
-182 324 -164 0
-182 -324 364 164 0
-182 324 -364 0
183 -184 186 0
183 -133 149 186 0
-183 -186 0
-183 -149 184 0
-183 133 184 0
184 72 -133 -151 0
184 -72 -151 -185 0
-184 151 0
-184 -72 185 0
-184 72 133 0
185 -323 -337 0
185 -323 -362 0
185 323 337 362 0
-185 323 -362 0
-185 -323 337 362 0
-185 323 -337 0
186 -149 188 0
186 187 188 0
-186 -188 0
-186 149 -187 0
187 -321 -363 0
187 321 363 0
-187 321 -363 0
-187 -321 363 0
188 72 -151 -187 0
188 -321 -72 -151 0
-188 151 0
-188 72 187 0
-188 321 -72 0
189 8 200 -203 0
189 -190 200 -203 0
-189 203 0
-189 -200 0
-189 -8 190 0
190 191 199 0
190 321 -89 191 0
-190 -191 0
-190 -321 -199 0
-190 89 -199 0
191 192 -194 0
191 89 192 0
191 141 192 0
-191 -192 0
-191 -89 -141 194 0
192 92 193 0
192 -67 71 193 0
-192 -193 0
-192 -71 -92 0
-192 67 -92 0
193 -331 373 0
193 331 -332 374 0
193 331 -373 0
193 332 373 -374 0
-193 -331 -373 0
-193 331 -332 373 -374 0
-193 331 332 373 374 0
194 -73 -195 0
194 -76 -196 0
194 -76 -73 0
194 -195 -196 0
-194 73 196 0
-194 76 195 0
195 -331 356 0
195 331 -332 357 0
195 331 -356 0
195 332 356 -357 0
-195 -331 -356 0
-195 331 -332 356 -357 0
-195 331 332 356 357 0
196 331 -341 -197 0
196 -331 -341 198 0
-196 341 0
-196 -331 -198 0
-196 331 197 0
197 332 364 0
197 332 -164 0
-197 -332 0
-197 -364 164 0
198 337 -362 0
-198 -337 0
-198 362 0
199 61 -92 0
199 61 187 0
-199 -61 0
-199 92 -187 0
200 32 36 -202 0
200 -32 36 201 0
-200 -36 0
-200 -32 -201 0
-200 32 202 0
201 318 319 0
-201 -318 0
-201 -319 0
202 -318 360 0
202 318 -319 361 0
202 318 -360 0
202 319 360 -361 0
-202 -318 -360 0
-202 318 -319 360 -361 0
-202 318 319 360 361 0
203 204 -205 210 -211 0
-203 205 0
-203 -210 0
-203 -204 0
-203 211 0
204 318 -319 -36 0
204 -318 360 -36 0
204 318 -360 -36 0
-204 36 0
-204 -318 -360 0
-204 318 319 360 0
205 -47 -206 -208 0
205 47 206 -207 -208 0
-205 47 -206 0
-205 -47 206 0
-205 208 0
-205 47 207 0
206 316 -317 0
-206 -316 0
-206 317 0
207 -316 -358 0
207 316 358 0
-207 316 -358 0
-207 -316 358 0
208 -308 -379 0
208 309 -379 0
208 -379 -209 0
-208 379 0
-208 308 -309 209 0
209 350 -351 0
-209 -350 0
-209 351 0
210 -308 350 0
210 308 309 -350 0
210 309 350 -351 0
-210 308 -309 0
-210 -308 -350 0
-210 308 350 351 0
211 -341 213 0
211 212 198 213 0
-211 -213 0
-211 341 -212 0
-211 341 -198 0
212 -364 164 0
-212 364 0
-212 -164 0
213 343 -214 0
213 337 343 -365 0
-213 -343 0
-213 -337 214 0
-213 365 214 0
214 -366 164 0
-214 366 0
-214 -164 0
215 -8 216 0
215 216 221 225 0
-215 -216 0
-215 8 -225 0
-215 8 -221 0
216 61 217 -220 0
216 8 61 217 0
-216 -217 0
-216 -61 0
-216 -8 220 0
217 8 -177 218 0
217 8 -218 219 0
-217 -8 0
-217 177 218 0
-217 -218 -219 0
218 -353 360 -361 -36 0
-218 36 0
-218 353 0
-218 361 0
-218 -360 0
219 -314 350 0
219 314 -315 351 0
219 314 -350 0
219 315 350 -351 0
-219 -314 -350 0
-219 314 -315 350 -351 0
-219 314 315 350 351 0
220 89 177 0
220 -92 -179 0
220 89 -92 0
220 177 -179 0
-220 -89 179 0
-220 92 -177 0
221 37 -193 0
221 -37 -45 222 0
221 -193 222 0
-221 -37 -222 0
-221 37 193 0
-221 45 193 0
222 -48 -223 0
-222 48 0
-222 223 0
223 331 -332 0
223 -331 -224 0
223 331 -214 0
-223 -331 224 0
-223 331 332 214 0
224 337 -365 0
-224 -337 0
-224 365 0
225 321 -32 61 0
225 32 61 187 0
-225 -61 0
-225 32 -187 0
-225 -321 -32 0
226 -61 -227 0
226 61 -233 0
226 61 -229 0
-226 -61 227 0
-226 61 229 233 0
227 313 -149 0
227 151 228 0
227 -149 151 0
227 313 228 0
-227 149 -228 0
-227 -313 -151 0
228 -313 -355 0
228 313 355 0
-228 313 -355 0
-228 -313 355 0
229 8 230 -232 0
229 27 8 230 0
-229 -230 0
-229 -8 0
-229 -27 232 0
230 313 27 -231 0
230 27 -228 231 0
-230 -27 0
-230 -313 -231 0
-230 228 231 0
231 -349 -95 0
-231 349 0
-231 95 0
232 -313 228 0
232 53 -55 0
232 53 228 0
232 -313 -55 0
-232 313 -53 0
-232 55 -228 0
233 313 -8 234 0
233 -8 89 234 0
-233 8 0
-233 -234 0
-233 -313 -89 0
234 92 -228 0
-234 -92 0
-234 228 0
235 61 236 -244 0
235 8 61 236 0
-235 -236 0
-235 -61 0
-235 -8 244 0
236 8 237 242 0
236 8 237 -241 0
-236 -8 0
-236 -237 0
-236 241 -242 0
237 -33 37 239 0
237 33 37 -238 0
-237 -37 0
-237 -33 -239 0
-237 33 238 0
238 164 180 0
238 134 180 0
238 -324 -164 -134 0
-238 164 -180 0
-238 134 -180 0
-238 324 -164 -134 0
239 -360 240 0
239 -180 240 0
-239 -240 0
-239 360 180 0
240 324 -360 -364 0
240 324 -360 -170 0
240 -324 -360 364 170 0
-240 -324 -364 0
-240 324 364 170 0
-240 360 0
-240 -324 -170 0
241 49 -180 0
241 164 -180 0
-241 180 0
-241 -164 -49 0
242 -37 243 0
242 -37 49 0
-242 37 0
-242 -49 -243 0
243 324 -164 0
-243 -324 0
-243 164 0
244 -92 245 0
244 180 245 0
-244 -245 0
-244 92 -180 0
245 324 -249 0
245 -141 -246 -249 0
-245 249 0
-245 -324 141 0
-245 -324 246 0
246 57 164 -248 0
246 57 164 -247 0
-246 -57 0
-246 -164 0
-246 247 248 0
247 356 357 0
-247 -356 0
-247 -357 0
248 -363 -364 0
-248 363 0
-248 364 0
249 -324 -89 0
249 71 -89 0
249 -89 246 0
-249 89 0
-249 324 -71 -246 0
250 251 -252 -253 0
250 -206 -252 -253 0
-250 253 0
-250 252 0
-250 -251 206 0
251 314 -315 0
-251 -314 0
-251 315 0
252 322 323 324 325 0
-252 -325 0
-252 -324 0
-252 -322 0
-252 -323 0
253 312 313 320 321 0
-253 -321 0
-253 -320 0
-253 -312 0
-253 -313 0
254 314 255 -256 0
254 -316 255 -256 0
-254 256 0
-254 -255 0
-254 -314 316 0
255 315 316 -317 0
255 314 315 -316 0
-255 -315 0
-255 316 317 0
-255 -314 -316 0
256 310 311 318 319 0
-256 -319 0
-256 -318 0
-256 -310 0
-256 -311 0
257 -258 -259 -260 -261 0
-257 261 0
-257 258 0
-257 260 0
-257 259 0
258 336 378 -119 -161 0
258 -336 -378 -119 -161 0
-258 161 0
-258 -336 378 0
-258 119 0
-258 336 -378 0
259 -329 -371 -102 0
259 329 371 -102 0
-259 102 0
-259 -329 371 0
-259 329 -371 0
260 -305 317 -347 359 0
260 305 -317 347 -359 0
260 305 317 347 359 0
260 -305 -317 -347 -359 0
-260 -305 347 0
-260 305 -347 0
-260 317 -359 0
-260 -317 359 0
261 -31 -262 -263 -180 0
-261 180 0
-261 31 0
-261 263 0
-261 262 0
262 -314 -356 0
262 314 356 0
-262 314 -356 0
-262 -314 356 0
263 -315 -357 0
263 315 357 0
-263 315 -357 0
-263 -315 357 0
264 -265 -277 -284 -289 0
-264 289 0
-264 265 0
-264 284 0
-264 277 0
265 -266 -269 -273 -274 0
-265 274 0
-265 266 0
-265 273 0
-265 269 0
266 330 372 267 -268 0
266 -330 -372 267 -268 0
-266 -267 0
-266 330 -372 0
-266 268 0
-266 -330 372 0
267 306 -348 0
267 -306 348 0
-267 -306 -348 0
-267 306 348 0
268 -296 297 -338 339 0
268 296 -297 338 -339 0
268 296 297 338 339 0
268 -296 -297 -338 -339 0
-268 -296 338 0
-268 296 -338 0
-268 297 -339 0
-268 -297 339 0
269 295 337 -270 -272 0
269 -295 -337 -270 -272 0
-269 272 0
-269 -295 337 0
-269 270 0
-269 295 -337 0
270 -309 -351 -271 0
270 309 351 -271 0
-270 271 0
-270 -309 351 0
-270 309 -351 0
271 307 334 0
271 -349 -376 0
271 307 -376 0
271 334 -349 0
-271 -307 349 0
-271 -334 376 0
272 -307 -380 0
272 349 -380 0
-272 380 0
-272 307 -349 0
273 -91 -148 -187 -228 0
-273 228 0
-273 91 0
-273 187 0
-273 148 0
274 316 358 -275 -276 0
274 -316 -358 -275 -276 0
-274 276 0
-274 -316 358 0
-274 275 0
-274 316 -358 0
275 -308 -350 0
275 308 350 0
-275 308 -350 0
-275 -308 350 0
276 -303 -345 -133 0
276 303 345 -133 0
-276 133 0
-276 -303 345 0
-276 303 -345 0
277 -278 -279 -280 -281 0
-277 281 0
-277 278 0
-277 280 0
-277 279 0
278 -331 332 -373 374 0
278 331 -332 373 -374 0
278 331 332 373 374 0
278 -331 -332 -373 -374 0
-278 -331 373 0
-278 331 -373 0
-278 332 -374 0
-278 -332 374 0
279 -318 319 -360 361 0
279 318 -319 360 -361 0
279 318 319 360 361 0
279 -318 -319 -360 -361 0
-279 -318 360 0
-279 318 -360 0
-279 319 -361 0
-279 -319 361 0
280 -298 299 341 0
280 -299 340 -341 0
280 -298 -299 -341 0
280 299 340 341 0
-280 299 -341 0
-280 -299 341 0
-280 298 -340 0
281 335 282 -283 0
281 -377 282 -283 0
-281 283 0
-281 -282 0
-281 -335 377 0
282 302 -344 0
-282 -302 0
-282 344 0
283 -300 -340 0
283 298 342 0
283 298 -300 0
283 -340 342 0
-283 -298 340 0
-283 300 -342 0
284 333 375 -285 -288 0
284 -333 -375 -285 -288 0
-284 288 0
-284 -333 375 0
-284 285 0
-284 333 -375 0
285 326 368 286 287 0
285 -326 -368 286 287 0
-285 -286 0
-285 -326 368 0
-285 -287 0
-285 326 -368 0
286 334 -376 0
-286 -334 0
-286 376 0
287 327 -369 0
-287 -327 0
-287 369 0
288 -304 -346 0
288 304 346 0
-288 304 -346 0
-288 -304 346 0
289 -290 -291 -292 0
-289 290 0
-289 291 0
-289 292 0
290 -301 -342 0
290 300 343 0
290 300 -301 0
290 -342 343 0
-290 -300 342 0
-290 301 -343 0
291 -335 -344 0
291 302 377 0
291 302 -335 0
291 -344 377 0
-291 -302 344 0
-291 335 -377 0
292 328 370 293 294 0
292 -328 -370 293 294 0
-292 -293 0
-292 -328 370 0
-292 -294 0
-292 328 -370 0
293 -327 369 0
-293 327 0
-293 -369 0
294 -301 343 0
-294 301 0
-294 -343 0
425 0
2 3 0
-2 -3 0
2 0

